tests = {"chess","euclid"};
datFiles = [{"benchmark_data/Chess/1034ChessS.txt_new","benchmark_data/Chess/1134ChessS.txt_new","benchmark_data/Chess/1234ChessS.txt_new","benchmark_data/Chess/1334ChessS.txt_new","benchmark_data/Chess/1434ChessS.txt_new","benchmark_data/Chess/1534ChessS.txt_new","benchmark_data/Chess/1634ChessS.txt_new","benchmark_data/Chess/1734ChessS.txt_new","benchmark_data/Chess/1834ChessS.txt_new","benchmark_data/Chess/1934ChessS.txt_new","benchmark_data/Chess/2034ChessS.txt_new","benchmark_data/Chess/2134ChessS.txt_new","benchmark_data/Chess/2234ChessS.txt_new","benchmark_data/Chess/2334ChessS.txt_new","benchmark_data/Chess/2434ChessS.txt_new","benchmark_data/Chess/2534ChessS.txt_new","benchmark_data/Chess/2634ChessS.txt_new","benchmark_data/Chess/2734ChessS.txt_new","benchmark_data/Chess/2834ChessS.txt_new","benchmark_data/Chess/2934ChessS.txt_new","benchmark_data/Chess/3034ChessS.txt_new","benchmark_data/Chess/3134ChessS.txt_new","benchmark_data/Chess/3234ChessS.txt_new","benchmark_data/Chess/334ChessS.txt_new","benchmark_data/Chess/434ChessS.txt_new","benchmark_data/Chess/534ChessS.txt_new","benchmark_data/Chess/634ChessS.txt_new","benchmark_data/Chess/734ChessS.txt_new","benchmark_data/Chess/834ChessS.txt_new","benchmark_data/Chess/934ChessS.txt_new"}, {"benchmark_data/Euclid/1011EuclS.txt_new","benchmark_data/Euclid/1111EuclS.txt_new","benchmark_data/Euclid/111EuclS.txt_new","benchmark_data/Euclid/1211EuclS.txt_new","benchmark_data/Euclid/1311EuclS.txt_new","benchmark_data/Euclid/1411EuclS.txt_new","benchmark_data/Euclid/1511EuclS.txt_new","benchmark_data/Euclid/1611EuclS.txt_new","benchmark_data/Euclid/1711EuclS.txt_new","benchmark_data/Euclid/1811EuclS.txt_new","benchmark_data/Euclid/1911EuclS.txt_new","benchmark_data/Euclid/2011EuclS.txt_new","benchmark_data/Euclid/2111EuclS.txt_new","benchmark_data/Euclid/211EuclS.txt_new","benchmark_data/Euclid/2211EuclS.txt_new","benchmark_data/Euclid/2311EuclS.txt_new","benchmark_data/Euclid/2411EuclS.txt_new","benchmark_data/Euclid/2511EuclS.txt_new","benchmark_data/Euclid/2611EuclS.txt_new","benchmark_data/Euclid/2711EuclS.txt_new","benchmark_data/Euclid/2811EuclS.txt_new","benchmark_data/Euclid/2911EuclS.txt_new","benchmark_data/Euclid/3011EuclS.txt_new","benchmark_data/Euclid/311EuclS.txt_new","benchmark_data/Euclid/411EuclS.txt_new","benchmark_data/Euclid/511EuclS.txt_new","benchmark_data/Euclid/611EuclS.txt_new","benchmark_data/Euclid/711EuclS.txt_new","benchmark_data/Euclid/811EuclS.txt_new","benchmark_data/Euclid/911EuclS.txt_new"}];
cont = 1;
